CMD:
./solvers/bin/cadical --plain --no-reduce -t 1600 ./data/cnfs//zipcpu-pfcache-p24/zipcpu-pfcache-p24.99.cnf

c --- [ banner ] -------------------------------------------------------------
c 
c CaDiCaL SAT Solver
c Copyright (c) 2016-2024
c A. Biere, M. Fleury, N. Froleyks, K. Fazekas, F. Pollitt, T. Faller
c JKU Linz, University of Freiburg, TU Wien
c 
c Version 2.1.3 5296d3d2a9bf48c154ab2acb5e44625776d821bf
c g++ (Gentoo 12.3.1_p20230526 p2) 12.3.1 20230526 -Wall -Wextra -O3 -DNDEBUG
c Sat Aug 9 07:26:21 PDT 2025 Linux cedar2.int.cedar.computecanada.ca 5.14.0-362.24.2.el9_3.x86_64 x86_64
c 
c --- [ limit ] --------------------------------------------------------------
c 
c setting time limit to 1600 seconds real time (due to '-t 1600')
c 
c --- [ parsing input ] ------------------------------------------------------
c 
c reading DIMACS file from './data/cnfs//zipcpu-pfcache-p24/zipcpu-pfcache-p24.99.cnf'
c opening file to read './data/cnfs//zipcpu-pfcache-p24/zipcpu-pfcache-p24.99.cnf'
c found 'p cnf 2021307 6038646' header
c parsed 6038646 clauses in 0.89 seconds process time
c 
c --- [ options ] ------------------------------------------------------------
c 
c   --compact=false                (different from default 'true')
c   --decompose=false              (different from default 'true')
c   --deduplicate=false            (different from default 'true')
c   --elim=false                   (different from default 'true')
c   --probe=false                  (different from default 'true')
c   --reduce=false                 (different from default 'true')
c   --subsume=false                (different from default 'true')
c   --ternary=false                (different from default 'true')
c   --transred=false               (different from default 'true')
c   --vivify=false                 (different from default 'true')
c 
c --- [ solving ] ------------------------------------------------------------
c 
c time measured in process time since initialization
c 
c  seconds   reductions  redundant   irredundant
c          MB    restarts       trail         variables
c           level   conflicts       glue            remaining
c 
c *  0.89 919  0 0   0    0    0  0% 0 6002585 2006647 99%
c {  1.16 952  0 0   0    0    0  0% 0 6002585 2006647 99%
c i  1.17 952  1 0   0    1    0  1% 0 6002585 1805375 89%
c i  1.17 952 38 0   0    4    2  8% 0 6002585 1804375 89%
c i  1.22 956 770 0   0   16   11 14% 3 6002585 1796743 89%
c i  1.44 957 472 0  12  117   90 16% 7 6002585 1796707 89%
c i  1.45 957 430 0  12  128  100 16% 7 6002585 1796689 89%
c i  1.50 957 219 0  12  291  246 16% 5 6002585 1796671 89%
c i  1.52 957 197 0  12  344  293 16% 4 6002585 1796653 89%
c i  1.58 957 167 0  19  424  366 16% 4 6002585 1796635 89%
c i  1.59 957 153 0  19  469  407 16% 4 6002585 1796441 89%
c i  1.62 957 126 0  23  587  517 15% 4 6002585 1795878 89%
c i  1.62 957 126 0  23  588  517 15% 4 6002585 1795849 89%
c i  1.62 957 125 0  23  589  517 15% 4 6002585 1795809 89%
c i  1.62 957 122 0  25  611  536 15% 4 6002585 1795791 89%
c i  1.63 957 119 0  28  624  543 15% 4 6002585 1795773 89%
c i  1.64 957 116 0  28  641  558 15% 4 6002585 1795755 89%
c i  1.64 957 115 0  28  651  566 15% 4 6002585 1795737 89%
c i  1.64 957 113 0  28  660  574 15% 4 6002585 1795719 89%
c i  1.64 957 111 0  28  678  591 15% 4 6002585 1795701 89%
c 
c  seconds   reductions  redundant   irredundant
c          MB    restarts       trail         variables
c           level   conflicts       glue            remaining
c 
c i  1.66 957 94 0  29  812  716 14% 4 6002585 1795683 89%
c i  1.67 957 93 0  32  826  728 14% 4 6002585 1795397 89%
c i  1.67 957 92 0  32  833  734 14% 4 6002585 1795379 89%
c i  1.67 957 92 0  32  836  736 14% 4 6002585 1795361 89%
c i  1.68 957 89 0  32  873  767 14% 4 6002585 1795208 89%
c i  1.68 957 89 0  32  874  767 14% 4 6002585 1794448 89%
c i  1.68 957 88 0  32  884  776 14% 4 6002585 1794420 89%
c i  1.69 957 85 0  32  917  786 14% 4 6002585 1794401 89%
c i  1.69 957 85 0  32  919  787 14% 4 6002585 1787624 88%
c i  1.70 957 80 0  32  970  831 14% 4 6002585 1778456 88%
c i  1.70 957 80 0  32  974  833 14% 4 6002585 1778396 88%
c i  1.70 957 80 0  32  979  836 14% 4 6002585 1778394 88%
c i  1.70 957 79 0  32  980  836 14% 4 6002585 1778364 88%
c i  1.70 957 79 0  32  986  840 14% 4 6002585 1778349 88%
c i  1.70 957 79 0  32  989  841 14% 4 6002585 1778310 88%
c i  1.70 957 79 0  32  991  842 14% 4 6002585 1778266 88%
c i  1.70 957 78 0  32 1002  850 14% 4 6002585 1778231 88%
c F  1.70 957 78 0  32 1003  850 14% 4 6002585 1778231 88%
c i  1.70 957 78 0  32 1003  850 14% 4 6002585 1778228 88%
c i  1.70 957 77 0  32 1004  850 14% 4 6002585 1778227 88%
c 
c  seconds   reductions  redundant   irredundant
c          MB    restarts       trail         variables
c           level   conflicts       glue            remaining
c 
c }  1.70 957 77 0  32 1004  850 14% 4 6002585 1778227 88%
c [  1.70 957  0 0  32 1004  850  0% 0 6002585 1778227 88%
c i  1.90 957 3623 0  32 1007  852 54% 1 6002585 1777834 88%
c i  1.90 957 3593 0  32 1008  852 52% 0 6002585 1777765 88%
c i  1.90 957 3576 0  32 1009  852 51% 0 6002585 1777736 88%
c i  1.91 957 3564 0  32 1010  852 50% 0 6002585 1774179 88%
c i  1.92 957 3478 0  32 1017  858 46% 1 6002585 1773670 88%
c i  1.95 957 3375 0  32 1024  861 44% 1 6002585 1773476 88%
c i  1.98 957 3294 0  32 1032  864 41% 1 6002585 1770701 88%
c i  2.02 957 3139 0  32 1037  866 39% 1 6002585 1748173 86%
c ]  2.03 957 3041 0  32 1039  866 38% 1 6002585 1748131 86%
c 0  2.03 957 3041 0  32 1039  866 38% 1 6002585 1748131 86%
c 
c --- [ result ] -------------------------------------------------------------
c 
s UNSATISFIABLE
c 
c --- [ run-time profiling ] -------------------------------------------------
c 
c process time taken by individual solving procedures
c (percentage relative to process time for solving)
c 
c         1.14   99.99% search
c         0.89   77.70% parse
c         0.54   47.41% unstable
c         0.33   28.61% stable
c         0.27   23.96% lucky
c         0.00    0.00% simplify
c   =================================
c         1.14   56.26% solve
c 
c last line shows process time for solving
c (percentage relative to total process time)
c 
c --- [ statistics ] ---------------------------------------------------------
c 
c chronological:               456        43.89 %  of conflicts
c conflicts:                  1039       911.77    per second
c decisions:                  7670      6730.74    per second
c fixed:                    273173        13.51 %  of all variables
c learned:                     982        94.51 %  per conflict
c learned_lits:              12663       100.00 %  learned literals
c minimized:                     0         0.00 %  learned literals
c shrunken:                   2033        16.05 %  learned literals
c minishrunken:               2296        18.13 %  learned literals
c otfs:                         10         0.96 %  of conflict
c propagations:           10624642         9.32 M  per second
c rephased:                      1      1039.00    interval
c restarts:                     32        32.47    interval
c stabilizing:                   1         3.37 %  of conflicts
c subsumed:                     65         0.00 %  of all clauses
c strengthened:                 10         0.00 %  of all clauses
c 
c seconds are measured in process time for solving
c 
c --- [ resources ] ----------------------------------------------------------
c 
c total process time since initialization:         2.03    seconds
c total real time since initialization:            2.04    seconds
c maximum resident set size of process:          954.59    MB
c 
c --- [ shutting down ] ------------------------------------------------------
c 
c exit 20
